s td 34 13 45
b 1 3 20
b 2 7 42
b 3 12 44
b 4 2 9 29
b 5 5 22 39
b 6 9 13 45
b 7 2 9 13 42
b 8 11 15 21 36
b 9 16 18 19 23
b 10 1 5 8 13 19 20 21 33 34 37 38 42 44
b 11 5 13 19 31 34 42
b 12 2 13 31 34 42
b 13 1 5 8 10 19 20 21 33 34 37 38 42 44
b 14 1 5 8 10 17 21 33 34 37 38 42 44
b 15 1 5 8 10 17 30 34 37 38 42 44
b 16 1 4 5 8 10 17 30 38 42 44
b 17 1 4 5 10 17 25 42 44
b 18 1 10 17 25 28
b 19 1 8 10 14 19 20 21 33 37 38 42 44
b 20 8 14 19 20 21 27 37 42
b 21 6 20 21 27
b 22 1 8 10 14 16 19 37 38 44
b 23 1 8 16 19 23 37 44
b 24 1 14 16 41
b 25 5 8 10 20 34 39 44
b 26 1 5 8 13 19 20 21 32 33 34 38 42
b 27 1 8 19 21 32 33 34 38 42 43
b 28 1 19 21 32 33 38 40 42 43
b 29 1 11 19 21 32 38 40 42
b 30 1 11 19 21 35 42
b 31 11 21 35 36
b 32 13 20 21 26 37 44
b 33 20 21 24 26 37
b 34 42
1 10
2 34
3 10
4 7
5 25
6 7
7 12
8 31
9 23
10 34
10 11
10 13
10 26
10 32
11 12
13 14
13 19
13 25
14 15
15 16
16 17
17 18
19 20
19 22
20 21
22 23
22 24
26 27
27 28
28 29
29 30
30 31
32 33
